128
100000
20391
42564
13934
34061
5043
2757
37184
41190
27021
10003
37807
8964
34651
43015
19559
16513
7867
12913
27069
21566
29627
48121
8624
20016
43468
5414
42249
22455
36317
25032
5153
43345
43989
18154
1184
28155
20786
34101
30475
8099
4862
2154
13597
42843
37422
18591
35763
12179
6089
46007
1910
11389
9101
22079
12619
48306
8026
15582
8613
38710
29717
29475
32323
37735
2886
23672
40237
7935
40588
38356
35456
47377
23765
1907
13524
4347
18592
39246
42309
19536
40135
25801
17005
2481
31789
29553
1412
12785
4059
27466
48537
2425
30688
35107
35839
44347
8646
8125
4287
22566
37094
12104
721
31485
1781
17739
23199
29251
9997
31373
23671
40646
22
16334
4004
15044
44268
30318
12308
35223
44979
23507
13377
39876
43304
8830
45674
27157
